(declare-fun _for_it_125 () Int)
(declare-fun kfdia () Int)
(declare-fun kidia () Int)
(declare-fun klev () Int)

(assert (and
  (forall ((_for_it_126_0 Int) (_for_it_126_1 Int))
    (or
      (not (<= _for_it_126_0 (+ kfdia (- 1))))
      (not (<= (+ kidia (- 1)) _for_it_126_0))
      (and
        (or
          (not (= _for_it_126_0 _for_it_126_1))
          (not (= (+ _for_it_125 1) (+ _for_it_125 2)))
        )
        (or
          (not (= _for_it_125 (+ _for_it_125 2)))
          (not (= _for_it_126_0 _for_it_126_1))
        )
      )
      (not (<= _for_it_126_1 (+ kfdia (- 1))))
      (not (<= (+ kidia (- 1)) _for_it_126_1))
    )
  )
  (forall ((_for_it_126_0 Int) (_for_it_126_1 Int))
    (or
      (not (<= _for_it_126_0 (+ kfdia (- 1))))
      (not (<= (+ kidia (- 1)) _for_it_126_0))
      (and
        (or
          (not (= _for_it_126_0 _for_it_126_1))
          (not (= (+ _for_it_125 1) (+ _for_it_125 2)))
        )
        (not (= _for_it_126_0 _for_it_126_1))
        (or
          (not (= _for_it_125 (+ _for_it_125 2)))
          (not (= _for_it_126_0 _for_it_126_1))
        )
      )
      (not (<= _for_it_126_1 (+ kfdia (- 1))))
      (not (<= (+ kidia (- 1)) _for_it_126_1))
    )
  )
  (forall ((_for_it_126_0 Int) (_for_it_126_1 Int))
    (or
      (not (<= _for_it_126_0 (+ kfdia (- 1))))
      (not (<= (+ kidia (- 1)) _for_it_126_0))
      (not (= _for_it_126_0 _for_it_126_1))
      (not (= _for_it_125 (+ _for_it_125 2)))
      (not (<= _for_it_126_1 (+ kfdia (- 1))))
      (not (<= (+ kidia (- 1)) _for_it_126_1))
    )
  )
  (and
    (<= kidia (+ kfdia (- 1)))
    (<= 0 _for_it_125)
    (<= 1 (+ klev (- 1)))
    (<= (+ _for_it_125 1) (+ klev (- 1)))
  )
  (forall ((_for_it_126_0 Int) (_for_it_126_1 Int))
    (or
      (not (<= _for_it_126_0 (+ kfdia (- 1))))
      (not (<= (+ kidia (- 1)) _for_it_126_0))
      (not (= _for_it_126_0 _for_it_126_1))
      (not (= (+ _for_it_125 1) (+ _for_it_125 2)))
      (not (<= _for_it_126_1 (+ kfdia (- 1))))
      (not (<= (+ kidia (- 1)) _for_it_126_1))
    )
  )
  (forall ((_for_it_126_0 Int) (_for_it_126_1 Int))
    (or
      (not (<= _for_it_126_0 (+ kfdia (- 1))))
      (not (<= (+ kidia (- 1)) _for_it_126_0))
      (not (<= _for_it_126_1 (+ kfdia (- 1))))
      (not (<= (+ kidia (- 1)) _for_it_126_1))
    )
  )
  (forall ((_for_it_126_0 Int) (_for_it_126_1 Int))
    (or
      (not (<= _for_it_126_0 (+ kfdia (- 1))))
      (not (<= (+ kidia (- 1)) _for_it_126_0))
      (and
        (or
          (not (= _for_it_126_0 _for_it_126_1))
          (not (= (+ _for_it_125 1) (+ _for_it_125 2)))
        )
        (not (= _for_it_126_0 _for_it_126_1))
      )
      (not (<= _for_it_126_1 (+ kfdia (- 1))))
      (not (<= (+ kidia (- 1)) _for_it_126_1))
    )
  )
  (forall ((_for_it_126_0 Int) (_for_it_126_1 Int))
    (or
      (not (<= _for_it_126_0 (+ kfdia (- 1))))
      (not (<= (+ kidia (- 1)) _for_it_126_0))
      (not (= _for_it_126_0 _for_it_126_1))
      (not (<= _for_it_126_1 (+ kfdia (- 1))))
      (not (<= (+ kidia (- 1)) _for_it_126_1))
    )
  )
))

(check-sat)